NAME: p02_7090_tsplib0_NORMALIZED
BEST_KNOWN: 0
COMMENT: 0
DIMENSION: 76
CAPACITY: 100
EDGE_WEIGHT_FORMAT: FUNCTION
EDGE_WEIGHT_TYPE: EXACT_2D
NODE_COORD_SECTION
1 0 0
2 -18 -18
3 -4 -14
4 -19 5
5 5 -5
6 15 -20
7 -7 -6
8 10 10
9 15 5
10 -14 19
11 0 26
12 15 25
13 -5 11
14 22 -5
15 22 17
16 22 -16
17 -19 -4
18 -7 4
19 -31 16
20 22 8
21 26 -26
22 4 -27
23 -14 -27
24 -29 -12
25 -33 3
26 -23 24
27 1 6
28 15 -6
29 -5 -24
30 12 -14
31 3 -14
32 -9 36
33 -18 13
34 -14 -11
35 10 0
36 15 10
37 14 -30
38 20 -25
39 7 26
40 -10 20
41 -10 10
42 -28 -23
43 -25 -26
44 -24 -21
45 -19 8
46 10 -10
47 11 2
48 10 -25
49 8 -19
50 -28 -2
51 -25 16
52 -11 -1
53 14 -2
54 15 17
55 27 1
56 -30 30
57 -34 -15
58 25 -13
59 0 20
60 30 24
61 24 -36
62 -4 -34
63 -10 -20
64 -20 -10
65 -25 -35
66 10 30
67 17 32
68 5 2
69 -2 -7
70 10 -36
71 26 -32
72 19 -35
73 -5 20
74 -13 -16
75 0 -20
76 0 -3
DEMAND_SECTION
1 0
2 86
3 77
4 74
5 80
6 87
7 87
8 79
9 72
10 73
11 70
12 85
13 77
14 79
15 80
16 83
17 75
18 71
19 80
20 86
21 80
22 71
23 82
24 82
25 81
26 85
27 84
28 70
29 85
30 72
31 71
32 86
33 85
34 86
35 74
36 86
37 79
38 85
39 79
40 79
41 86
42 73
43 70
44 82
45 82
46 87
47 75
48 79
49 78
50 86
51 82
52 82
53 82
54 71
55 87
56 84
57 84
58 75
59 83
60 77
61 76
62 87
63 75
64 75
65 75
66 76
67 79
68 86
69 71
70 89
71 87
72 88
73 87
74 86
75 89
76 70
DEPOT_SECTION
1
-1
EOF